sat
(:elim-unconstrained  196
 :max-memory          24.97
 :memory              20.10
 :nlsat-arith-var     344
 :nlsat-atoms         3093
 :nlsat-bool-var      1
 :nlsat-clauses       864
 :nlsat-conflicts     28218
 :nlsat-decisions     12225
 :nlsat-propagations  230564
 :nlsat-stages        58684
 :num-allocs          17729890
 :rlimit-count        8006901
 :solve-eqs-elim-vars 638
 :solve-eqs-steps     4000
 :time                1.74
 :total-time          1.75)
